p cnf 1223 2834
1 0
2 0
3 0
4 0
5 0
6 0
7 0
8 0
9 0
10 0
11 0
12 0
13 0
14 0
15 0
16 0
17 0
18 0
19 0
20 0
21 0
22 0
23 0
-24 0
-25 0
-26 0
-27 0
-28 0
-29 0
-30 0
-31 0
-32 0
-33 0
-34 0
-35 0
-36 0
-37 0
-38 0
-39 0
-40 0
-41 0
-42 0
-43 0
-44 0
-45 0
-46 0
-47 0
-48 0
49 50 0
2 50 0
-49 -2 -50 0
-1 50 -51 0
1 -50 -51 0
51 -50 -1 0
1 50 51 0
-51 0
52 53 0
54 53 0
-52 -54 -53 0
-2 53 -55 0
2 -53 -55 0
55 -53 -2 0
2 53 55 0
-55 0
54 -56 0
56 -54 0
57 58 0
59 58 0
-57 -59 -58 0
-3 58 -60 0
3 -58 -60 0
60 -58 -3 0
3 58 60 0
-60 0
61 62 0
4 62 0
-61 -4 -62 0
-59 62 -63 0
59 -62 -63 0
63 -62 -59 0
59 62 63 0
-63 0
64 65 0
5 65 0
-64 -5 -65 0
-4 65 -66 0
4 -65 -66 0
66 -65 -4 0
4 65 66 0
-66 0
67 68 0
69 68 0
-67 -69 -68 0
-5 68 -70 0
5 -68 -70 0
70 -68 -5 0
5 68 70 0
-70 0
71 72 0
6 72 0
-71 -6 -72 0
-69 72 -73 0
69 -72 -73 0
73 -72 -69 0
69 72 73 0
-73 0
64 74 0
67 74 0
71 74 0
75 74 0
-76 0
-6 74 -77 0
6 -74 -77 0
77 -74 -6 0
6 74 77 0
-77 0
69 78 0
79 78 0
-69 -79 -78 0
-7 78 -80 0
7 -78 -80 0
80 -78 -7 0
7 78 80 0
-80 0
81 82 0
83 82 0
-81 -83 -82 0
-8 82 -84 0
8 -82 -84 0
84 -82 -8 0
8 82 84 0
-84 0
85 86 0
87 86 0
-85 -87 -86 0
-83 86 -88 0
83 -86 -88 0
88 -86 -83 0
83 86 88 0
-88 0
89 90 0
91 90 0
-89 -91 -90 0
-87 90 -92 0
87 -90 -92 0
92 -90 -87 0
87 90 92 0
-92 0
93 94 0
95 94 0
-93 -95 -94 0
-91 94 -96 0
91 -94 -96 0
96 -94 -91 0
91 94 96 0
-96 0
97 98 0
99 98 0
-97 -99 -98 0
-95 98 -100 0
95 -98 -100 0
100 -98 -95 0
95 98 100 0
-100 0
89 101 0
93 101 0
97 101 0
102 101 0
-103 0
-99 101 -104 0
99 -101 -104 0
104 -101 -99 0
99 101 104 0
-104 0
105 106 0
7 106 0
-105 -7 -106 0
-9 106 -107 0
9 -106 -107 0
107 -106 -9 0
9 106 107 0
-107 0
108 109 0
110 109 0
-108 -110 -109 0
-10 109 -111 0
10 -109 -111 0
111 -109 -10 0
10 109 111 0
-111 0
112 113 0
114 113 0
-112 -114 -113 0
-110 113 -115 0
110 -113 -115 0
115 -113 -110 0
110 113 115 0
-115 0
91 116 0
117 116 0
-91 -117 -116 0
-114 116 -118 0
114 -116 -118 0
118 -116 -114 0
114 116 118 0
-118 0
6 119 0
120 119 0
-6 -120 -119 0
-11 119 -121 0
11 -119 -121 0
121 -119 -11 0
11 119 121 0
-121 0
122 123 0
124 123 0
-122 -124 -123 0
-12 123 -125 0
12 -123 -125 0
125 -123 -12 0
12 123 125 0
-125 0
54 126 0
127 126 0
-54 -127 -126 0
-124 126 -128 0
124 -126 -128 0
128 -126 -124 0
124 126 128 0
-128 0
129 130 0
131 130 0
-129 -131 -130 0
-13 130 -132 0
13 -130 -132 0
132 -130 -13 0
13 130 132 0
-132 0
99 133 0
134 133 0
-99 -134 -133 0
-131 133 -135 0
131 -133 -135 0
135 -133 -131 0
131 133 135 0
-135 0
136 137 0
138 137 0
-136 -138 -137 0
-14 137 -139 0
14 -137 -139 0
139 -137 -14 0
14 137 139 0
-139 0
140 141 0
142 141 0
-140 -142 -141 0
-138 141 -143 0
138 -141 -143 0
143 -141 -138 0
138 141 143 0
-143 0
144 145 0
146 145 0
-144 -146 -145 0
-142 145 -147 0
142 -145 -147 0
147 -145 -142 0
142 145 147 0
-147 0
148 149 0
150 149 0
-148 -150 -149 0
-146 149 -151 0
146 -149 -151 0
151 -149 -146 0
146 149 151 0
-151 0
144 152 0
148 152 0
153 152 0
-144 -148 -153 -152 0
-150 152 -154 0
150 -152 -154 0
154 -152 -150 0
150 152 154 0
-154 0
155 156 0
157 156 0
-155 -157 -156 0
-15 156 -158 0
15 -156 -158 0
158 -156 -15 0
15 156 158 0
-158 0
7 159 0
160 159 0
-7 -160 -159 0
-157 159 -161 0
157 -159 -161 0
161 -159 -157 0
157 159 161 0
-161 0
162 163 0
164 163 0
-162 -164 -163 0
-16 163 -165 0
16 -163 -165 0
165 -163 -16 0
16 163 165 0
-165 0
2 166 0
167 166 0
-2 -167 -166 0
-164 166 -168 0
164 -166 -168 0
168 -166 -164 0
164 166 168 0
-168 0
169 170 0
171 170 0
-169 -171 -170 0
-17 170 -172 0
17 -170 -172 0
172 -170 -17 0
17 170 172 0
-172 0
173 174 0
175 174 0
-173 -175 -174 0
-171 174 -176 0
171 -174 -176 0
176 -174 -171 0
171 174 176 0
-176 0
177 178 0
179 178 0
-177 -179 -178 0
-175 178 -180 0
175 -178 -180 0
180 -178 -175 0
175 178 180 0
-180 0
181 182 0
183 182 0
-181 -183 -182 0
-179 182 -184 0
179 -182 -184 0
184 -182 -179 0
179 182 184 0
-184 0
185 186 0
187 186 0
-185 -187 -186 0
-183 186 -188 0
183 -186 -188 0
188 -186 -183 0
183 186 188 0
-188 0
177 189 0
181 189 0
185 189 0
190 189 0
-191 0
-187 189 -192 0
187 -189 -192 0
192 -189 -187 0
187 189 192 0
-192 0
193 194 0
195 194 0
-193 -195 -194 0
-18 194 -196 0
18 -194 -196 0
196 -194 -18 0
18 194 196 0
-196 0
197 198 0
199 198 0
-197 -199 -198 0
-195 198 -200 0
195 -198 -200 0
200 -198 -195 0
195 198 200 0
-200 0
201 202 0
203 202 0
-201 -203 -202 0
-199 202 -204 0
199 -202 -204 0
204 -202 -199 0
199 202 204 0
-204 0
205 206 0
207 206 0
-205 -207 -206 0
-203 206 -208 0
203 -206 -208 0
208 -206 -203 0
203 206 208 0
-208 0
209 210 0
211 210 0
-209 -211 -210 0
-207 210 -212 0
207 -210 -212 0
212 -210 -207 0
207 210 212 0
-212 0
205 213 0
209 213 0
214 213 0
-205 -209 -214 -213 0
-211 213 -215 0
211 -213 -215 0
215 -213 -211 0
211 213 215 0
-215 0
216 217 0
218 217 0
-216 -218 -217 0
-19 217 -219 0
19 -217 -219 0
219 -217 -19 0
19 217 219 0
-219 0
211 220 0
221 220 0
-211 -221 -220 0
-218 220 -222 0
218 -220 -222 0
222 -220 -218 0
218 220 222 0
-222 0
179 223 0
224 223 0
-179 -224 -223 0
-20 223 -225 0
20 -223 -225 0
225 -223 -20 0
20 223 225 0
-225 0
218 226 0
227 226 0
-218 -227 -226 0
-21 226 -228 0
21 -226 -228 0
228 -226 -21 0
21 226 228 0
-228 0
4 229 0
230 229 0
-4 -230 -229 0
-22 229 -231 0
22 -229 -231 0
231 -229 -22 0
22 229 231 0
-231 0
232 233 0
234 233 0
-232 -234 -233 0
-23 233 -235 0
23 -233 -235 0
235 -233 -23 0
23 233 235 0
-235 0
236 237 0
238 237 0
-236 -238 -237 0
-234 237 -239 0
234 -237 -239 0
239 -237 -234 0
234 237 239 0
-239 0
207 240 0
241 240 0
-207 -241 -240 0
-238 240 -242 0
238 -240 -242 0
242 -240 -238 0
238 240 242 0
-242 0
243 244 0
245 244 0
-243 -245 -244 0
-24 244 -246 0
24 -244 -246 0
246 -244 -24 0
24 244 246 0
-246 0
247 248 0
249 248 0
-247 -249 -248 0
-245 248 -250 0
245 -248 -250 0
250 -248 -245 0
245 248 250 0
-250 0
251 252 0
253 252 0
-251 -253 -252 0
-249 252 -254 0
249 -252 -254 0
254 -252 -249 0
249 252 254 0
-254 0
255 256 0
257 256 0
-255 -257 -256 0
-253 256 -258 0
253 -256 -258 0
258 -256 -253 0
253 256 258 0
-258 0
259 260 0
261 260 0
-259 -261 -260 0
-257 260 -262 0
257 -260 -262 0
262 -260 -257 0
257 260 262 0
-262 0
251 263 0
255 263 0
259 263 0
264 263 0
-265 0
-261 263 -266 0
261 -263 -266 0
266 -263 -261 0
261 263 266 0
-266 0
267 268 0
269 268 0
-267 -269 -268 0
-25 268 -270 0
25 -268 -270 0
270 -268 -25 0
25 268 270 0
-270 0
271 272 0
273 272 0
-271 -273 -272 0
-269 272 -274 0
269 -272 -274 0
274 -272 -269 0
269 272 274 0
-274 0
275 276 0
277 276 0
-275 -277 -276 0
-273 276 -278 0
273 -276 -278 0
278 -276 -273 0
273 276 278 0
-278 0
279 280 0
281 280 0
-279 -281 -280 0
-277 280 -282 0
277 -280 -282 0
282 -280 -277 0
277 280 282 0
-282 0
283 284 0
285 284 0
-283 -285 -284 0
-281 284 -286 0
281 -284 -286 0
286 -284 -281 0
281 284 286 0
-286 0
283 287 0
288 287 0
-283 -288 -287 0
-285 287 -289 0
285 -287 -289 0
289 -287 -285 0
285 287 289 0
-289 0
290 291 0
292 291 0
-290 -292 -291 0
-26 291 -293 0
26 -291 -293 0
293 -291 -26 0
26 291 293 0
-293 0
294 295 0
296 295 0
-294 -296 -295 0
-292 295 -297 0
292 -295 -297 0
297 -295 -292 0
292 295 297 0
-297 0
298 299 0
300 299 0
-298 -300 -299 0
-296 299 -301 0
296 -299 -301 0
301 -299 -296 0
296 299 301 0
-301 0
302 303 0
304 303 0
-302 -304 -303 0
-300 303 -305 0
300 -303 -305 0
305 -303 -300 0
300 303 305 0
-305 0
306 307 0
308 307 0
-306 -308 -307 0
-304 307 -309 0
304 -307 -309 0
309 -307 -304 0
304 307 309 0
-309 0
302 310 0
306 310 0
311 310 0
-302 -306 -311 -310 0
-308 310 -312 0
308 -310 -312 0
312 -310 -308 0
308 310 312 0
-312 0
313 314 0
315 314 0
-313 -315 -314 0
-27 314 -316 0
27 -314 -316 0
316 -314 -27 0
27 314 316 0
-316 0
317 318 0
319 318 0
-317 -319 -318 0
-315 318 -320 0
315 -318 -320 0
320 -318 -315 0
315 318 320 0
-320 0
321 322 0
323 322 0
-321 -323 -322 0
-319 322 -324 0
319 -322 -324 0
324 -322 -319 0
319 322 324 0
-324 0
325 326 0
327 326 0
-325 -327 -326 0
-323 326 -328 0
323 -326 -328 0
328 -326 -323 0
323 326 328 0
-328 0
329 330 0
331 330 0
-329 -331 -330 0
-327 330 -332 0
327 -330 -332 0
332 -330 -327 0
327 330 332 0
-332 0
333 334 0
335 334 0
-333 -335 -334 0
-331 334 -336 0
331 -334 -336 0
336 -334 -331 0
331 334 336 0
-336 0
337 338 0
339 338 0
-337 -339 -338 0
-335 338 -340 0
335 -338 -340 0
340 -338 -335 0
335 338 340 0
-340 0
329 341 0
333 341 0
337 341 0
342 341 0
-343 0
-339 341 -344 0
339 -341 -344 0
344 -341 -339 0
339 341 344 0
-344 0
345 346 0
347 346 0
-345 -347 -346 0
-28 346 -348 0
28 -346 -348 0
348 -346 -28 0
28 346 348 0
-348 0
285 349 0
350 349 0
-285 -350 -349 0
-347 349 -351 0
347 -349 -351 0
351 -349 -347 0
347 349 351 0
-351 0
352 353 0
354 353 0
-352 -354 -353 0
-29 353 -355 0
29 -353 -355 0
355 -353 -29 0
29 353 355 0
-355 0
356 357 0
358 357 0
-356 -358 -357 0
-354 357 -359 0
354 -357 -359 0
359 -357 -354 0
354 357 359 0
-359 0
360 361 0
362 361 0
-360 -362 -361 0
-358 361 -363 0
358 -361 -363 0
363 -361 -358 0
358 361 363 0
-363 0
364 365 0
366 365 0
-364 -366 -365 0
-362 365 -367 0
362 -365 -367 0
367 -365 -362 0
362 365 367 0
-367 0
360 368 0
364 368 0
369 368 0
-360 -364 -369 -368 0
-366 368 -370 0
366 -368 -370 0
370 -368 -366 0
366 368 370 0
-370 0
371 372 0
373 372 0
-371 -373 -372 0
-30 372 -374 0
30 -372 -374 0
374 -372 -30 0
30 372 374 0
-374 0
375 376 0
377 376 0
-375 -377 -376 0
-373 376 -378 0
373 -376 -378 0
378 -376 -373 0
373 376 378 0
-378 0
379 380 0
381 380 0
-379 -381 -380 0
-377 380 -382 0
377 -380 -382 0
382 -380 -377 0
377 380 382 0
-382 0
383 384 0
385 384 0
-383 -385 -384 0
-381 384 -386 0
381 -384 -386 0
386 -384 -381 0
381 384 386 0
-386 0
383 387 0
388 387 0
-383 -388 -387 0
-385 387 -389 0
385 -387 -389 0
389 -387 -385 0
385 387 389 0
-389 0
390 391 0
392 391 0
-390 -392 -391 0
-31 391 -393 0
31 -391 -393 0
393 -391 -31 0
31 391 393 0
-393 0
394 395 0
396 395 0
-394 -396 -395 0
-392 395 -397 0
392 -395 -397 0
397 -395 -392 0
392 395 397 0
-397 0
398 399 0
400 399 0
-398 -400 -399 0
-396 399 -401 0
396 -399 -401 0
401 -399 -396 0
396 399 401 0
-401 0
402 403 0
404 403 0
-402 -404 -403 0
-400 403 -405 0
400 -403 -405 0
405 -403 -400 0
400 403 405 0
-405 0
398 406 0
402 406 0
407 406 0
-398 -402 -407 -406 0
-404 406 -408 0
404 -406 -408 0
408 -406 -404 0
404 406 408 0
-408 0
409 410 0
411 410 0
-409 -411 -410 0
-32 410 -412 0
32 -410 -412 0
412 -410 -32 0
32 410 412 0
-412 0
124 413 0
414 413 0
-124 -414 -413 0
-411 413 -415 0
411 -413 -415 0
415 -413 -411 0
411 413 415 0
-415 0
416 417 0
418 417 0
-416 -418 -417 0
-33 417 -419 0
33 -417 -419 0
419 -417 -33 0
33 417 419 0
-419 0
420 421 0
422 421 0
-420 -422 -421 0
-418 421 -423 0
418 -421 -423 0
423 -421 -418 0
418 421 423 0
-423 0
424 425 0
426 425 0
-424 -426 -425 0
-422 425 -427 0
422 -425 -427 0
427 -425 -422 0
422 425 427 0
-427 0
428 429 0
430 429 0
-428 -430 -429 0
-426 429 -431 0
426 -429 -431 0
431 -429 -426 0
426 429 431 0
-431 0
424 432 0
428 432 0
433 432 0
-424 -428 -433 -432 0
-430 432 -434 0
430 -432 -434 0
434 -432 -430 0
430 432 434 0
-434 0
435 436 0
437 436 0
-435 -437 -436 0
-34 436 -438 0
34 -436 -438 0
438 -436 -34 0
34 436 438 0
-438 0
439 440 0
441 440 0
-439 -441 -440 0
-437 440 -442 0
437 -440 -442 0
442 -440 -437 0
437 440 442 0
-442 0
443 444 0
445 444 0
-443 -445 -444 0
-441 444 -446 0
441 -444 -446 0
446 -444 -441 0
441 444 446 0
-446 0
447 448 0
449 448 0
-447 -449 -448 0
-445 448 -450 0
445 -448 -450 0
450 -448 -445 0
445 448 450 0
-450 0
451 452 0
453 452 0
-451 -453 -452 0
-449 452 -454 0
449 -452 -454 0
454 -452 -449 0
449 452 454 0
-454 0
447 455 0
451 455 0
456 455 0
-447 -451 -456 -455 0
-453 455 -457 0
453 -455 -457 0
457 -455 -453 0
453 455 457 0
-457 0
458 459 0
460 459 0
-458 -460 -459 0
-35 459 -461 0
35 -459 -461 0
461 -459 -35 0
35 459 461 0
-461 0
462 463 0
464 463 0
-462 -464 -463 0
-460 463 -465 0
460 -463 -465 0
465 -463 -460 0
460 463 465 0
-465 0
466 467 0
468 467 0
-466 -468 -467 0
-464 467 -469 0
464 -467 -469 0
469 -467 -464 0
464 467 469 0
-469 0
470 471 0
472 471 0
-470 -472 -471 0
-468 471 -473 0
468 -471 -473 0
473 -471 -468 0
468 471 473 0
-473 0
466 474 0
470 474 0
475 474 0
-466 -470 -475 -474 0
-472 474 -476 0
472 -474 -476 0
476 -474 -472 0
472 474 476 0
-476 0
477 478 0
479 478 0
-477 -479 -478 0
-36 478 -480 0
36 -478 -480 0
480 -478 -36 0
36 478 480 0
-480 0
481 482 0
483 482 0
-481 -483 -482 0
-479 482 -484 0
479 -482 -484 0
484 -482 -479 0
479 482 484 0
-484 0
483 -485 0
485 -483 0
486 487 0
488 487 0
-486 -488 -487 0
-37 487 -489 0
37 -487 -489 0
489 -487 -37 0
37 487 489 0
-489 0
490 491 0
492 491 0
-490 -492 -491 0
-488 491 -493 0
488 -491 -493 0
493 -491 -488 0
488 491 493 0
-493 0
494 495 0
496 495 0
-494 -496 -495 0
-492 495 -497 0
492 -495 -497 0
497 -495 -492 0
492 495 497 0
-497 0
498 499 0
500 499 0
-498 -500 -499 0
-496 499 -501 0
496 -499 -501 0
501 -499 -496 0
496 499 501 0
-501 0
502 503 0
504 503 0
-502 -504 -503 0
-500 503 -505 0
500 -503 -505 0
505 -503 -500 0
500 503 505 0
-505 0
506 507 0
508 507 0
-506 -508 -507 0
-504 507 -509 0
504 -507 -509 0
509 -507 -504 0
504 507 509 0
-509 0
510 511 0
512 511 0
-510 -512 -511 0
-508 511 -513 0
508 -511 -513 0
513 -511 -508 0
508 511 513 0
-513 0
502 514 0
506 514 0
510 514 0
515 514 0
-516 0
-512 514 -517 0
512 -514 -517 0
517 -514 -512 0
512 514 517 0
-517 0
518 519 0
520 519 0
-518 -520 -519 0
-38 519 -521 0
38 -519 -521 0
521 -519 -38 0
38 519 521 0
-521 0
522 523 0
524 523 0
-522 -524 -523 0
-520 523 -525 0
520 -523 -525 0
525 -523 -520 0
520 523 525 0
-525 0
526 527 0
528 527 0
-526 -528 -527 0
-524 527 -529 0
524 -527 -529 0
529 -527 -524 0
524 527 529 0
-529 0
530 531 0
532 531 0
-530 -532 -531 0
-528 531 -533 0
528 -531 -533 0
533 -531 -528 0
528 531 533 0
-533 0
534 535 0
536 535 0
-534 -536 -535 0
-532 535 -537 0
532 -535 -537 0
537 -535 -532 0
532 535 537 0
-537 0
530 538 0
534 538 0
539 538 0
-530 -534 -539 -538 0
-536 538 -540 0
536 -538 -540 0
540 -538 -536 0
536 538 540 0
-540 0
541 542 0
543 542 0
-541 -543 -542 0
-39 542 -544 0
39 -542 -544 0
544 -542 -39 0
39 542 544 0
-544 0
545 546 0
547 546 0
-545 -547 -546 0
-543 546 -548 0
543 -546 -548 0
548 -546 -543 0
543 546 548 0
-548 0
549 550 0
551 550 0
-549 -551 -550 0
-547 550 -552 0
547 -550 -552 0
552 -550 -547 0
547 550 552 0
-552 0
549 553 0
554 553 0
-549 -554 -553 0
-551 553 -555 0
551 -553 -555 0
555 -553 -551 0
551 553 555 0
-555 0
556 557 0
558 557 0
-556 -558 -557 0
-40 557 -559 0
40 -557 -559 0
559 -557 -40 0
40 557 559 0
-559 0
560 561 0
562 561 0
-560 -562 -561 0
-558 561 -563 0
558 -561 -563 0
563 -561 -558 0
558 561 563 0
-563 0
560 564 0
565 564 0
-560 -565 -564 0
-562 564 -566 0
562 -564 -566 0
566 -564 -562 0
562 564 566 0
-566 0
567 568 0
569 568 0
-567 -569 -568 0
-41 568 -570 0
41 -568 -570 0
570 -568 -41 0
41 568 570 0
-570 0
571 572 0
573 572 0
-571 -573 -572 0
-569 572 -574 0
569 -572 -574 0
574 -572 -569 0
569 572 574 0
-574 0
575 576 0
577 576 0
-575 -577 -576 0
-573 576 -578 0
573 -576 -578 0
578 -576 -573 0
573 576 578 0
-578 0
575 579 0
580 579 0
-575 -580 -579 0
-577 579 -581 0
577 -579 -581 0
581 -579 -577 0
577 579 581 0
-581 0
582 583 0
584 583 0
-582 -584 -583 0
-42 583 -585 0
42 -583 -585 0
585 -583 -42 0
42 583 585 0
-585 0
586 587 0
588 587 0
-586 -588 -587 0
-584 587 -589 0
584 -587 -589 0
589 -587 -584 0
584 587 589 0
-589 0
590 591 0
592 591 0
-590 -592 -591 0
-588 591 -593 0
588 -591 -593 0
593 -591 -588 0
588 591 593 0
-593 0
594 595 0
596 595 0
-594 -596 -595 0
-592 595 -597 0
592 -595 -597 0
597 -595 -592 0
592 595 597 0
-597 0
598 599 0
600 599 0
-598 -600 -599 0
-596 599 -601 0
596 -599 -601 0
601 -599 -596 0
596 599 601 0
-601 0
602 603 0
604 603 0
-602 -604 -603 0
-600 603 -605 0
600 -603 -605 0
605 -603 -600 0
600 603 605 0
-605 0
594 606 0
598 606 0
602 606 0
607 606 0
-608 0
-604 606 -609 0
604 -606 -609 0
609 -606 -604 0
604 606 609 0
-609 0
610 611 0
612 611 0
-610 -612 -611 0
-43 611 -613 0
43 -611 -613 0
613 -611 -43 0
43 611 613 0
-613 0
614 615 0
616 615 0
-614 -616 -615 0
-612 615 -617 0
612 -615 -617 0
617 -615 -612 0
612 615 617 0
-617 0
618 619 0
620 619 0
-618 -620 -619 0
-616 619 -621 0
616 -619 -621 0
621 -619 -616 0
616 619 621 0
-621 0
622 623 0
624 623 0
-622 -624 -623 0
-620 623 -625 0
620 -623 -625 0
625 -623 -620 0
620 623 625 0
-625 0
624 -626 0
626 -624 0
620 627 0
628 627 0
-620 -628 -627 0
-44 627 -629 0
44 -627 -629 0
629 -627 -44 0
44 627 629 0
-629 0
630 631 0
632 631 0
-630 -632 -631 0
-45 631 -633 0
45 -631 -633 0
633 -631 -45 0
45 631 633 0
-633 0
281 634 0
635 634 0
-281 -635 -634 0
-632 634 -636 0
632 -634 -636 0
636 -634 -632 0
632 634 636 0
-636 0
637 638 0
639 638 0
-637 -639 -638 0
-46 638 -640 0
46 -638 -640 0
640 -638 -46 0
46 638 640 0
-640 0
596 641 0
642 641 0
-596 -642 -641 0
-639 641 -643 0
639 -641 -643 0
643 -641 -639 0
639 641 643 0
-643 0
644 645 0
646 645 0
-644 -646 -645 0
-47 645 -647 0
47 -645 -647 0
647 -645 -47 0
47 645 647 0
-647 0
648 649 0
650 649 0
-648 -650 -649 0
-646 649 -651 0
646 -649 -651 0
651 -649 -646 0
646 649 651 0
-651 0
652 653 0
654 653 0
-652 -654 -653 0
-650 653 -655 0
650 -653 -655 0
655 -653 -650 0
650 653 655 0
-655 0
656 657 0
658 657 0
-656 -658 -657 0
-654 657 -659 0
654 -657 -659 0
659 -657 -654 0
654 657 659 0
-659 0
660 661 0
662 661 0
-660 -662 -661 0
-658 661 -663 0
658 -661 -663 0
663 -661 -658 0
658 661 663 0
-663 0
652 664 0
656 664 0
660 664 0
665 664 0
-666 0
-662 664 -667 0
662 -664 -667 0
667 -664 -662 0
662 664 667 0
-667 0
668 669 0
670 669 0
-668 -670 -669 0
-48 669 -671 0
48 -669 -671 0
671 -669 -48 0
48 669 671 0
-671 0
672 673 0
674 673 0
-672 -674 -673 0
-670 673 -675 0
670 -673 -675 0
675 -673 -670 0
670 673 675 0
-675 0
676 677 0
678 677 0
-676 -678 -677 0
-674 677 -679 0
674 -677 -679 0
679 -677 -674 0
674 677 679 0
-679 0
680 681 0
682 681 0
-680 -682 -681 0
-678 681 -683 0
678 -681 -683 0
683 -681 -678 0
678 681 683 0
-683 0
684 685 0
686 685 0
-684 -686 -685 0
-682 685 -687 0
682 -685 -687 0
687 -685 -682 0
682 685 687 0
-687 0
688 689 0
690 689 0
-688 -690 -689 0
-686 689 -691 0
686 -689 -691 0
691 -689 -686 0
686 689 691 0
-691 0
684 692 0
688 692 0
693 692 0
-684 -688 -693 -692 0
-690 692 -694 0
690 -692 -694 0
694 -692 -690 0
690 692 694 0
-694 0
695 696 0
696 -697 0
-695 697 -696 0
49 -696 0
-49 696 0
698 699 0
-700 699 0
-698 700 -699 0
52 -699 0
-52 699 0
701 702 0
702 -703 0
-701 703 -702 0
56 -702 0
-56 702 0
704 705 0
705 -706 0
-704 706 -705 0
57 -705 0
-57 705 0
707 708 0
-709 708 0
-707 709 -708 0
61 -708 0
-61 708 0
710 711 0
-712 711 0
-710 712 -711 0
64 -711 0
-64 711 0
713 714 0
714 -715 0
-713 715 -714 0
67 -714 0
-67 714 0
716 717 0
717 -718 0
-716 718 -717 0
71 -717 0
-71 717 0
719 720 0
-721 720 0
-719 721 -720 0
75 -720 0
-75 720 0
722 723 0
-724 723 0
-722 724 -723 0
79 -723 0
-79 723 0
725 726 0
-727 726 0
-725 727 -726 0
81 -726 0
-81 726 0
728 729 0
729 -730 0
-728 730 -729 0
85 -729 0
-85 729 0
731 732 0
-733 732 0
-731 733 -732 0
89 -732 0
-89 732 0
734 735 0
-736 735 0
-734 736 -735 0
93 -735 0
-93 735 0
737 738 0
738 -739 0
-737 739 -738 0
97 -738 0
-97 738 0
740 741 0
-742 741 0
-740 742 -741 0
102 -741 0
-102 741 0
743 744 0
-745 744 0
-743 745 -744 0
105 -744 0
-105 744 0
746 747 0
-748 747 0
-746 748 -747 0
108 -747 0
-108 747 0
749 750 0
-751 750 0
-749 751 -750 0
112 -750 0
-112 750 0
752 753 0
753 -754 0
-752 754 -753 0
117 -753 0
-117 753 0
755 756 0
-757 756 0
-755 757 -756 0
120 -756 0
-120 756 0
758 759 0
-760 759 0
-758 760 -759 0
122 -759 0
-122 759 0
761 762 0
-763 762 0
-761 763 -762 0
127 -762 0
-127 762 0
764 765 0
765 -766 0
-764 766 -765 0
129 -765 0
-129 765 0
767 768 0
-769 768 0
-767 769 -768 0
134 -768 0
-134 768 0
770 771 0
-772 771 0
-770 772 -771 0
136 -771 0
-136 771 0
773 774 0
-775 774 0
-773 775 -774 0
140 -774 0
-140 774 0
776 777 0
777 -778 0
-776 778 -777 0
144 -777 0
-144 777 0
779 780 0
-781 780 0
-779 781 -780 0
148 -780 0
-148 780 0
782 783 0
783 -784 0
-782 784 -783 0
153 -783 0
-153 783 0
785 786 0
786 -787 0
-785 787 -786 0
155 -786 0
-155 786 0
788 789 0
-790 789 0
-788 790 -789 0
160 -789 0
-160 789 0
791 792 0
-793 792 0
-791 793 -792 0
162 -792 0
-162 792 0
794 795 0
-796 795 0
-794 796 -795 0
167 -795 0
-167 795 0
797 798 0
798 -799 0
-797 799 -798 0
169 -798 0
-169 798 0
800 801 0
-802 801 0
-800 802 -801 0
173 -801 0
-173 801 0
803 804 0
804 -805 0
-803 805 -804 0
177 -804 0
-177 804 0
806 807 0
807 -808 0
-806 808 -807 0
181 -807 0
-181 807 0
809 810 0
-811 810 0
-809 811 -810 0
185 -810 0
-185 810 0
812 813 0
813 -814 0
-812 814 -813 0
190 -813 0
-190 813 0
815 816 0
-817 816 0
-815 817 -816 0
193 -816 0
-193 816 0
818 819 0
819 -820 0
-818 820 -819 0
197 -819 0
-197 819 0
821 822 0
-823 822 0
-821 823 -822 0
201 -822 0
-201 822 0
824 825 0
-826 825 0
-824 826 -825 0
205 -825 0
-205 825 0
827 828 0
-829 828 0
-827 829 -828 0
209 -828 0
-209 828 0
830 831 0
831 -832 0
-830 832 -831 0
214 -831 0
-214 831 0
833 834 0
-835 834 0
-833 835 -834 0
216 -834 0
-216 834 0
836 837 0
837 -838 0
-836 838 -837 0
221 -837 0
-221 837 0
839 840 0
-841 840 0
-839 841 -840 0
224 -840 0
-224 840 0
842 843 0
843 -844 0
-842 844 -843 0
227 -843 0
-227 843 0
845 846 0
-847 846 0
-845 847 -846 0
230 -846 0
-230 846 0
848 849 0
-850 849 0
-848 850 -849 0
232 -849 0
-232 849 0
851 852 0
-853 852 0
-851 853 -852 0
236 -852 0
-236 852 0
854 855 0
855 -856 0
-854 856 -855 0
241 -855 0
-241 855 0
857 858 0
-859 858 0
-857 859 -858 0
243 -858 0
-243 858 0
860 861 0
861 -862 0
-860 862 -861 0
247 -861 0
-247 861 0
863 864 0
864 -865 0
-863 865 -864 0
251 -864 0
-251 864 0
866 867 0
867 -868 0
-866 868 -867 0
255 -867 0
-255 867 0
869 870 0
870 -871 0
-869 871 -870 0
259 -870 0
-259 870 0
872 873 0
-874 873 0
-872 874 -873 0
264 -873 0
-264 873 0
875 876 0
876 -877 0
-875 877 -876 0
267 -876 0
-267 876 0
878 879 0
-880 879 0
-878 880 -879 0
271 -879 0
-271 879 0
881 882 0
882 -883 0
-881 883 -882 0
275 -882 0
-275 882 0
884 885 0
-886 885 0
-884 886 -885 0
279 -885 0
-279 885 0
887 888 0
-889 888 0
-887 889 -888 0
283 -888 0
-283 888 0
890 891 0
-892 891 0
-890 892 -891 0
288 -891 0
-288 891 0
893 894 0
-895 894 0
-893 895 -894 0
290 -894 0
-290 894 0
896 897 0
897 -898 0
-896 898 -897 0
294 -897 0
-294 897 0
899 900 0
-901 900 0
-899 901 -900 0
298 -900 0
-298 900 0
902 903 0
-904 903 0
-902 904 -903 0
302 -903 0
-302 903 0
905 906 0
-907 906 0
-905 907 -906 0
306 -906 0
-306 906 0
908 909 0
909 -910 0
-908 910 -909 0
311 -909 0
-311 909 0
911 912 0
-913 912 0
-911 913 -912 0
313 -912 0
-313 912 0
914 915 0
-916 915 0
-914 916 -915 0
317 -915 0
-317 915 0
917 918 0
918 -919 0
-917 919 -918 0
321 -918 0
-321 918 0
920 921 0
-922 921 0
-920 922 -921 0
325 -921 0
-325 921 0
923 924 0
-925 924 0
-923 925 -924 0
329 -924 0
-329 924 0
926 927 0
927 -928 0
-926 928 -927 0
333 -927 0
-333 927 0
929 930 0
-931 930 0
-929 931 -930 0
337 -930 0
-337 930 0
932 933 0
-934 933 0
-932 934 -933 0
342 -933 0
-342 933 0
935 936 0
-937 936 0
-935 937 -936 0
345 -936 0
-345 936 0
938 939 0
-940 939 0
-938 940 -939 0
350 -939 0
-350 939 0
941 942 0
-943 942 0
-941 943 -942 0
352 -942 0
-352 942 0
944 945 0
-946 945 0
-944 946 -945 0
356 -945 0
-356 945 0
947 948 0
-949 948 0
-947 949 -948 0
360 -948 0
-360 948 0
950 951 0
-952 951 0
-950 952 -951 0
364 -951 0
-364 951 0
953 954 0
954 -955 0
-953 955 -954 0
369 -954 0
-369 954 0
956 957 0
957 -958 0
-956 958 -957 0
371 -957 0
-371 957 0
959 960 0
960 -961 0
-959 961 -960 0
375 -960 0
-375 960 0
962 963 0
-964 963 0
-962 964 -963 0
379 -963 0
-379 963 0
965 966 0
-967 966 0
-965 967 -966 0
383 -966 0
-383 966 0
968 969 0
-970 969 0
-968 970 -969 0
388 -969 0
-388 969 0
971 972 0
-973 972 0
-971 973 -972 0
390 -972 0
-390 972 0
974 975 0
-976 975 0
-974 976 -975 0
394 -975 0
-394 975 0
977 978 0
-979 978 0
-977 979 -978 0
398 -978 0
-398 978 0
980 981 0
-982 981 0
-980 982 -981 0
402 -981 0
-402 981 0
983 984 0
-985 984 0
-983 985 -984 0
407 -984 0
-407 984 0
986 987 0
-988 987 0
-986 988 -987 0
409 -987 0
-409 987 0
989 990 0
-991 990 0
-989 991 -990 0
414 -990 0
-414 990 0
992 993 0
993 -994 0
-992 994 -993 0
416 -993 0
-416 993 0
995 996 0
-997 996 0
-995 997 -996 0
420 -996 0
-420 996 0
998 999 0
-1000 999 0
-998 1000 -999 0
424 -999 0
-424 999 0
1001 1002 0
1002 -1003 0
-1001 1003 -1002 0
428 -1002 0
-428 1002 0
1004 1005 0
-1006 1005 0
-1004 1006 -1005 0
433 -1005 0
-433 1005 0
1007 1008 0
-1009 1008 0
-1007 1009 -1008 0
435 -1008 0
-435 1008 0
1010 1011 0
1011 -1012 0
-1010 1012 -1011 0
439 -1011 0
-439 1011 0
1013 1014 0
-1015 1014 0
-1013 1015 -1014 0
443 -1014 0
-443 1014 0
1016 1017 0
-1018 1017 0
-1016 1018 -1017 0
447 -1017 0
-447 1017 0
1019 1020 0
-1021 1020 0
-1019 1021 -1020 0
451 -1020 0
-451 1020 0
1022 1023 0
-1024 1023 0
-1022 1024 -1023 0
456 -1023 0
-456 1023 0
1025 1026 0
-1027 1026 0
-1025 1027 -1026 0
458 -1026 0
-458 1026 0
1028 1029 0
-1030 1029 0
-1028 1030 -1029 0
462 -1029 0
-462 1029 0
1031 1032 0
-1033 1032 0
-1031 1033 -1032 0
466 -1032 0
-466 1032 0
1034 1035 0
-1036 1035 0
-1034 1036 -1035 0
470 -1035 0
-470 1035 0
1037 1038 0
-1039 1038 0
-1037 1039 -1038 0
475 -1038 0
-475 1038 0
1040 1041 0
-1042 1041 0
-1040 1042 -1041 0
477 -1041 0
-477 1041 0
1043 1044 0
-1045 1044 0
-1043 1045 -1044 0
481 -1044 0
-481 1044 0
1046 1047 0
-1048 1047 0
-1046 1048 -1047 0
485 -1047 0
-485 1047 0
1049 1050 0
-1051 1050 0
-1049 1051 -1050 0
486 -1050 0
-486 1050 0
1052 1053 0
-1054 1053 0
-1052 1054 -1053 0
490 -1053 0
-490 1053 0
1055 1056 0
1056 -1057 0
-1055 1057 -1056 0
494 -1056 0
-494 1056 0
1058 1059 0
1059 -1060 0
-1058 1060 -1059 0
498 -1059 0
-498 1059 0
1061 1062 0
-1063 1062 0
-1061 1063 -1062 0
502 -1062 0
-502 1062 0
1064 1065 0
-1066 1065 0
-1064 1066 -1065 0
506 -1065 0
-506 1065 0
1067 1068 0
-1069 1068 0
-1067 1069 -1068 0
510 -1068 0
-510 1068 0
1070 1071 0
-1072 1071 0
-1070 1072 -1071 0
515 -1071 0
-515 1071 0
1073 1074 0
-1075 1074 0
-1073 1075 -1074 0
518 -1074 0
-518 1074 0
1076 1077 0
-1078 1077 0
-1076 1078 -1077 0
522 -1077 0
-522 1077 0
1079 1080 0
-1081 1080 0
-1079 1081 -1080 0
526 -1080 0
-526 1080 0
1082 1083 0
-1084 1083 0
-1082 1084 -1083 0
530 -1083 0
-530 1083 0
1085 1086 0
1086 -1087 0
-1085 1087 -1086 0
534 -1086 0
-534 1086 0
1088 1089 0
1089 -1090 0
-1088 1090 -1089 0
539 -1089 0
-539 1089 0
1091 1092 0
-1093 1092 0
-1091 1093 -1092 0
541 -1092 0
-541 1092 0
1094 1095 0
-1096 1095 0
-1094 1096 -1095 0
545 -1095 0
-545 1095 0
1097 1098 0
1098 -1099 0
-1097 1099 -1098 0
549 -1098 0
-549 1098 0
1100 1101 0
-1102 1101 0
-1100 1102 -1101 0
554 -1101 0
-554 1101 0
1103 1104 0
-1105 1104 0
-1103 1105 -1104 0
556 -1104 0
-556 1104 0
1106 1107 0
-1108 1107 0
-1106 1108 -1107 0
560 -1107 0
-560 1107 0
1109 1110 0
1110 -1111 0
-1109 1111 -1110 0
565 -1110 0
-565 1110 0
1112 1113 0
1113 -1114 0
-1112 1114 -1113 0
567 -1113 0
-567 1113 0
1115 1116 0
1116 -1117 0
-1115 1117 -1116 0
571 -1116 0
-571 1116 0
1118 1119 0
-1120 1119 0
-1118 1120 -1119 0
575 -1119 0
-575 1119 0
1121 1122 0
-1123 1122 0
-1121 1123 -1122 0
580 -1122 0
-580 1122 0
1124 1125 0
1125 -1126 0
-1124 1126 -1125 0
582 -1125 0
-582 1125 0
1127 1128 0
1128 -1129 0
-1127 1129 -1128 0
586 -1128 0
-586 1128 0
1130 1131 0
-1132 1131 0
-1130 1132 -1131 0
590 -1131 0
-590 1131 0
1133 1134 0
-1135 1134 0
-1133 1135 -1134 0
594 -1134 0
-594 1134 0
1136 1137 0
-1138 1137 0
-1136 1138 -1137 0
598 -1137 0
-598 1137 0
1139 1140 0
-1141 1140 0
-1139 1141 -1140 0
602 -1140 0
-602 1140 0
1142 1143 0
-1144 1143 0
-1142 1144 -1143 0
607 -1143 0
-607 1143 0
1145 1146 0
-1147 1146 0
-1145 1147 -1146 0
610 -1146 0
-610 1146 0
1148 1149 0
-1150 1149 0
-1148 1150 -1149 0
614 -1149 0
-614 1149 0
1151 1152 0
-1153 1152 0
-1151 1153 -1152 0
618 -1152 0
-618 1152 0
1154 1155 0
-1156 1155 0
-1154 1156 -1155 0
622 -1155 0
-622 1155 0
1157 1158 0
-1159 1158 0
-1157 1159 -1158 0
626 -1158 0
-626 1158 0
1160 1161 0
-1162 1161 0
-1160 1162 -1161 0
628 -1161 0
-628 1161 0
1163 1164 0
-1165 1164 0
-1163 1165 -1164 0
630 -1164 0
-630 1164 0
1166 1167 0
-1168 1167 0
-1166 1168 -1167 0
635 -1167 0
-635 1167 0
1169 1170 0
-1171 1170 0
-1169 1171 -1170 0
637 -1170 0
-637 1170 0
1172 1173 0
-1174 1173 0
-1172 1174 -1173 0
642 -1173 0
-642 1173 0
1175 1176 0
1176 -1177 0
-1175 1177 -1176 0
644 -1176 0
-644 1176 0
1178 1179 0
-1180 1179 0
-1178 1180 -1179 0
648 -1179 0
-648 1179 0
1181 1182 0
-1183 1182 0
-1181 1183 -1182 0
652 -1182 0
-652 1182 0
1184 1185 0
-1186 1185 0
-1184 1186 -1185 0
656 -1185 0
-656 1185 0
1187 1188 0
-1189 1188 0
-1187 1189 -1188 0
660 -1188 0
-660 1188 0
1190 1191 0
-1192 1191 0
-1190 1192 -1191 0
665 -1191 0
-665 1191 0
1193 1194 0
1194 -1195 0
-1193 1195 -1194 0
668 -1194 0
-668 1194 0
1196 1197 0
1197 -1198 0
-1196 1198 -1197 0
672 -1197 0
-672 1197 0
1199 1200 0
-1201 1200 0
-1199 1201 -1200 0
676 -1200 0
-676 1200 0
1202 1203 0
-1204 1203 0
-1202 1204 -1203 0
680 -1203 0
-680 1203 0
1205 1206 0
-1207 1206 0
-1205 1207 -1206 0
684 -1206 0
-684 1206 0
1208 1209 0
1209 -1210 0
-1208 1210 -1209 0
688 -1209 0
-688 1209 0
1211 1212 0
-1213 1212 0
-1211 1213 -1212 0
693 -1212 0
-693 1212 0
695 0
-698 0
701 0
704 0
-707 0
-710 0
713 0
716 0
-719 0
-722 0
-725 0
728 0
-731 0
-734 0
737 0
-740 0
-743 0
-746 0
-749 0
752 0
-755 0
-758 0
-761 0
764 0
-767 0
-770 0
-773 0
776 0
-779 0
782 0
785 0
-788 0
-791 0
-794 0
797 0
-800 0
803 0
806 0
-809 0
812 0
-815 0
818 0
-821 0
-824 0
-827 0
830 0
-833 0
836 0
-839 0
842 0
-845 0
-848 0
-851 0
854 0
857 0
860 0
863 0
866 0
869 0
-872 0
875 0
-878 0
881 0
-884 0
-887 0
890 0
-893 0
896 0
899 0
-902 0
-905 0
908 0
-911 0
-914 0
917 0
-920 0
-923 0
926 0
-929 0
932 0
935 0
938 0
-941 0
-944 0
947 0
-950 0
953 0
956 0
959 0
-962 0
965 0
-968 0
-971 0
974 0
977 0
-980 0
-983 0
-986 0
989 0
992 0
-995 0
998 0
1001 0
-1004 0
-1007 0
1010 0
-1013 0
-1016 0
1019 0
1022 0
1025 0
-1028 0
-1031 0
-1034 0
1037 0
-1040 0
-1043 0
1046 0
-1049 0
1052 0
1055 0
1058 0
-1061 0
-1064 0
-1067 0
-1070 0
-1073 0
-1076 0
1079 0
-1082 0
1085 0
1088 0
-1091 0
1094 0
1097 0
-1100 0
-1103 0
1106 0
1109 0
1112 0
1115 0
-1118 0
-1121 0
1124 0
1127 0
-1130 0
-1133 0
-1136 0
1139 0
1142 0
-1145 0
1148 0
-1151 0
1154 0
-1157 0
1160 0
1163 0
-1166 0
-1169 0
1172 0
1175 0
-1178 0
-1181 0
-1184 0
-1187 0
1190 0
1193 0
1196 0
-1199 0
-1202 0
-1205 0
1208 0
1211 0
-1214 -1215 0
697 -1214 0
700 -1214 0
703 -1214 0
706 -1214 0
709 -1214 0
712 -1214 0
715 -1214 0
718 -1214 0
721 -1214 0
-1214 -724 0
727 -1214 0
730 -1214 0
733 -1214 0
736 -1214 0
739 -1214 0
742 -1214 0
-1214 -745 0
748 -1214 0
-1214 -751 0
754 -1214 0
757 -1214 0
760 -1214 0
-1214 -763 0
766 -1214 0
769 -1214 0
-1214 -772 0
-1214 -775 0
778 -1214 0
781 -1214 0
784 -1214 0
787 -1214 0
790 -1214 0
793 -1214 0
796 -1214 0
799 -1214 0
802 -1214 0
805 -1214 0
808 -1214 0
811 -1214 0
814 -1214 0
817 -1214 0
820 -1214 0
823 -1214 0
826 -1214 0
829 -1214 0
832 -1214 0
835 -1214 0
838 -1214 0
-1214 -841 0
844 -1214 0
-1214 -847 0
-1214 -850 0
853 -1214 0
856 -1214 0
-1214 -859 0
862 -1214 0
865 -1214 0
868 -1214 0
871 -1214 0
-1214 -874 0
877 -1214 0
880 -1214 0
883 -1214 0
-1214 -886 0
-1214 -889 0
-1214 -892 0
-1214 -895 0
898 -1214 0
-1214 -901 0
-1214 -904 0
-1214 -907 0
910 -1214 0
-1214 -913 0
-1214 -916 0
919 -1214 0
-1214 -922 0
-1214 -925 0
928 -1214 0
-1214 -931 0
-1214 -934 0
-1214 -937 0
-1214 -940 0
943 -1214 0
946 -1214 0
-1214 -949 0
-1214 -952 0
955 -1214 0
958 -1214 0
961 -1214 0
-1214 -964 0
-1214 -967 0
970 -1214 0
973 -1214 0
-1214 -976 0
-1214 -979 0
982 -1214 0
-1214 -985 0
-1214 -988 0
-1214 -991 0
994 -1214 0
-1214 -997 0
-1214 -1000 0
1003 -1214 0
1006 -1214 0
-1214 -1009 0
1012 -1214 0
-1214 -1015 0
1018 -1214 0
-1214 -1021 0
-1214 -1024 0
-1214 -1027 0
1030 -1214 0
-1214 -1033 0
1036 -1214 0
-1214 -1039 0
-1214 -1042 0
1045 -1214 0
-1214 -1048 0
1051 -1214 0
-1214 -1054 0
1057 -1214 0
1060 -1214 0
1063 -1214 0
1066 -1214 0
-1214 -1069 0
1072 -1214 0
-1214 -1075 0
-1214 -1078 0
-1214 -1081 0
-1214 -1084 0
1087 -1214 0
1090 -1214 0
1093 -1214 0
-1214 -1096 0
1099 -1214 0
-1214 -1102 0
-1214 -1105 0
-1214 -1108 0
1111 -1214 0
1114 -1214 0
1117 -1214 0
-1214 -1120 0
1123 -1214 0
1126 -1214 0
1129 -1214 0
-1214 -1132 0
1135 -1214 0
1138 -1214 0
-1214 -1141 0
-1214 -1144 0
1147 -1214 0
-1214 -1150 0
1153 -1214 0
-1214 -1156 0
-1214 -1159 0
-1214 -1162 0
-1214 -1165 0
1168 -1214 0
1171 -1214 0
-1214 -1174 0
1177 -1214 0
1180 -1214 0
-1214 -1183 0
-1214 -1186 0
-1214 -1189 0
-1214 -1192 0
1195 -1214 0
1198 -1214 0
1201 -1214 0
-1214 -1204 0
1207 -1214 0
1210 -1214 0
-1214 -1213 0
697 -1215 0
-1215 -700 0
703 -1215 0
706 -1215 0
-1215 -709 0
-1215 -712 0
715 -1215 0
718 -1215 0
-1215 -721 0
-1215 -724 0
-1215 -727 0
730 -1215 0
-1215 -733 0
-1215 -736 0
739 -1215 0
-1215 -742 0
-1215 -745 0
-1215 -748 0
-1215 -751 0
754 -1215 0
-1215 -757 0
-1215 -760 0
-1215 -763 0
766 -1215 0
-1215 -769 0
-1215 -772 0
-1215 -775 0
778 -1215 0
-1215 -781 0
784 -1215 0
787 -1215 0
-1215 -790 0
-1215 -793 0
-1215 -796 0
799 -1215 0
-1215 -802 0
805 -1215 0
808 -1215 0
-1215 -811 0
814 -1215 0
-1215 -817 0
820 -1215 0
-1215 -823 0
-1215 -826 0
-1215 -829 0
832 -1215 0
-1215 -835 0
838 -1215 0
-1215 -841 0
844 -1215 0
-1215 -847 0
-1215 -850 0
-1215 -853 0
856 -1215 0
859 -1215 0
862 -1215 0
865 -1215 0
868 -1215 0
871 -1215 0
-1215 -874 0
877 -1215 0
-1215 -880 0
883 -1215 0
-1215 -886 0
-1215 -889 0
892 -1215 0
-1215 -895 0
898 -1215 0
901 -1215 0
-1215 -904 0
-1215 -907 0
910 -1215 0
-1215 -913 0
-1215 -916 0
919 -1215 0
-1215 -922 0
-1215 -925 0
928 -1215 0
-1215 -931 0
934 -1215 0
937 -1215 0
940 -1215 0
-1215 -943 0
-1215 -946 0
949 -1215 0
-1215 -952 0
955 -1215 0
958 -1215 0
961 -1215 0
-1215 -964 0
967 -1215 0
-1215 -970 0
-1215 -973 0
976 -1215 0
979 -1215 0
-1215 -982 0
-1215 -985 0
-1215 -988 0
991 -1215 0
994 -1215 0
-1215 -997 0
1000 -1215 0
1003 -1215 0
-1215 -1006 0
-1215 -1009 0
1012 -1215 0
-1215 -1015 0
-1215 -1018 0
1021 -1215 0
1024 -1215 0
1027 -1215 0
-1215 -1030 0
-1215 -1033 0
-1215 -1036 0
1039 -1215 0
-1215 -1042 0
-1215 -1045 0
1048 -1215 0
-1215 -1051 0
1054 -1215 0
1057 -1215 0
1060 -1215 0
-1215 -1063 0
-1215 -1066 0
-1215 -1069 0
-1215 -1072 0
-1215 -1075 0
-1215 -1078 0
1081 -1215 0
-1215 -1084 0
1087 -1215 0
1090 -1215 0
-1215 -1093 0
1096 -1215 0
1099 -1215 0
-1215 -1102 0
-1215 -1105 0
1108 -1215 0
1111 -1215 0
1114 -1215 0
1117 -1215 0
-1215 -1120 0
-1215 -1123 0
1126 -1215 0
1129 -1215 0
-1215 -1132 0
-1215 -1135 0
-1215 -1138 0
1141 -1215 0
1144 -1215 0
-1215 -1147 0
1150 -1215 0
-1215 -1153 0
1156 -1215 0
-1215 -1159 0
1162 -1215 0
1165 -1215 0
-1215 -1168 0
-1215 -1171 0
1174 -1215 0
1177 -1215 0
-1215 -1180 0
-1215 -1183 0
-1215 -1186 0
-1215 -1189 0
1192 -1215 0
1195 -1215 0
1198 -1215 0
-1215 -1201 0
-1215 -1204 0
-1215 -1207 0
1210 -1215 0
1213 -1215 0
1214 1215 0
-1216 0
-1217 0
-1218 0
-1219 0
-1220 0
-1221 0
-1222 0
-1223 0
